20	5
0	3	1	3	2
1	2	14	6
2	2	11	19
3	2	12	6
4	1	10
5	3	16	17	18
6	1	4
7	1	20
8	1	18
9	2	8	15
10	2	8	5
11	1	16
12	2	9	4
13	2	16	17
14	1	12
15	2	7	5
16	1	21
17	1	21
18	1	21
19	1	21
20	1	21
21	0
0	0	0	0	0	0	0
1	4	1	0	3	4	1
2	9	2	0	0	2	0
3	5	0	0	0	2	0
4	7	2	1	0	0	0
5	4	1	2	0	0	0
6	8	0	0	0	2	0
7	9	0	0	5	4	4
8	4	0	3	0	1	0
9	5	0	5	4	1	2
10	7	3	5	2	1	0
11	2	0	0	0	0	5
12	10	5	0	2	0	0
13	9	0	1	0	3	5
14	7	0	0	0	2	4
15	8	0	2	0	0	3
16	4	4	3	1	4	5
17	2	0	0	0	3	0
18	3	4	4	0	0	2
19	8	2	5	4	2	0
20	6	0	3	0	3	0
21	0	0	0	0	0	0
6	5	6	6	6
